language Essence 1.3

letting codeWordLength be 31
letting dist be
        function((1, 1) --> 0, (1, 2) --> 6, (1, 3) --> 5, (1, 4) --> 8, (1, 5) --> 12, (1, 6) --> 8, (1, 7) --> 19,
                 (1, 8) --> 0, (1, 9) --> 16, (1, 10) --> 2, (1, 11) --> 2, (1, 12) --> 13, (1, 13) --> 18,
                 (1, 14) --> 4, (1, 15) --> 18, (1, 16) --> 16, (1, 17) --> 4, (1, 18) --> 0, (1, 19) --> 2,
                 (1, 20) --> 5, (1, 21) --> 19, (1, 22) --> 20, (1, 23) --> 2, (1, 24) --> 13, (1, 25) --> 16,
                 (2, 1) --> 6, (2, 2) --> 0, (2, 3) --> 3, (2, 4) --> 13, (2, 5) --> 3, (2, 6) --> 13, (2, 7) --> 8,
                 (2, 8) --> 3, (2, 9) --> 19, (2, 10) --> 18, (2, 11) --> 10, (2, 12) --> 12, (2, 13) --> 0,
                 (2, 14) --> 2, (2, 15) --> 20, (2, 16) --> 10, (2, 17) --> 14, (2, 18) --> 18, (2, 19) --> 21,
                 (2, 20) --> 7, (2, 21) --> 3, (2, 22) --> 13, (2, 23) --> 0, (2, 24) --> 14, (2, 25) --> 7,
                 (3, 1) --> 5, (3, 2) --> 3, (3, 3) --> 0, (3, 4) --> 21, (3, 5) --> 15, (3, 6) --> 15, (3, 7) --> 6,
                 (3, 8) --> 10, (3, 9) --> 2, (3, 10) --> 8, (3, 11) --> 1, (3, 12) --> 19, (3, 13) --> 19,
                 (3, 14) --> 11, (3, 15) --> 15, (3, 16) --> 8, (3, 17) --> 16, (3, 18) --> 4, (3, 19) --> 14,
                 (3, 20) --> 21, (3, 21) --> 15, (3, 22) --> 3, (3, 23) --> 13, (3, 24) --> 9, (3, 25) --> 19,
                 (4, 1) --> 8, (4, 2) --> 13, (4, 3) --> 21, (4, 4) --> 0, (4, 5) --> 14, (4, 6) --> 10, (4, 7) --> 5,
                 (4, 8) --> 14, (4, 9) --> 9, (4, 10) --> 0, (4, 11) --> 15, (4, 12) --> 2, (4, 13) --> 9,
                 (4, 14) --> 5, (4, 15) --> 0, (4, 16) --> 10, (4, 17) --> 1, (4, 18) --> 8, (4, 19) --> 11,
                 (4, 20) --> 16, (4, 21) --> 18, (4, 22) --> 3, (4, 23) --> 6, (4, 24) --> 3, (4, 25) --> 18,
                 (5, 1) --> 12, (5, 2) --> 3, (5, 3) --> 15, (5, 4) --> 14, (5, 5) --> 0, (5, 6) --> 4, (5, 7) --> 18,
                 (5, 8) --> 18, (5, 9) --> 13, (5, 10) --> 20, (5, 11) --> 18, (5, 12) --> 7, (5, 13) --> 10,
                 (5, 14) --> 2, (5, 15) --> 12, (5, 16) --> 13, (5, 17) --> 4, (5, 18) --> 10, (5, 19) --> 14,
                 (5, 20) --> 15, (5, 21) --> 12, (5, 22) --> 11, (5, 23) --> 3, (5, 24) --> 7, (5, 25) --> 3,
                 (6, 1) --> 8, (6, 2) --> 13, (6, 3) --> 15, (6, 4) --> 10, (6, 5) --> 4, (6, 6) --> 0, (6, 7) --> 8,
                 (6, 8) --> 11, (6, 9) --> 21, (6, 10) --> 19, (6, 11) --> 5, (6, 12) --> 12, (6, 13) --> 8,
                 (6, 14) --> 4, (6, 15) --> 7, (6, 16) --> 3, (6, 17) --> 9, (6, 18) --> 10, (6, 19) --> 16,
                 (6, 20) --> 2, (6, 21) --> 20, (6, 22) --> 8, (6, 23) --> 20, (6, 24) --> 17, (6, 25) --> 15,
                 (7, 1) --> 19, (7, 2) --> 8, (7, 3) --> 6, (7, 4) --> 5, (7, 5) --> 18, (7, 6) --> 8, (7, 7) --> 0,
                 (7, 8) --> 0, (7, 9) --> 17, (7, 10) --> 20, (7, 11) --> 3, (7, 12) --> 18, (7, 13) --> 13,
                 (7, 14) --> 16, (7, 15) --> 7, (7, 16) --> 8, (7, 17) --> 15, (7, 18) --> 7, (7, 19) --> 7,
                 (7, 20) --> 2, (7, 21) --> 20, (7, 22) --> 21, (7, 23) --> 16, (7, 24) --> 4, (7, 25) --> 8,
                 (8, 1) --> 0, (8, 2) --> 3, (8, 3) --> 10, (8, 4) --> 14, (8, 5) --> 18, (8, 6) --> 11, (8, 7) --> 0,
                 (8, 8) --> 0, (8, 9) --> 19, (8, 10) --> 16, (8, 11) --> 14, (8, 12) --> 4, (8, 13) --> 1,
                 (8, 14) --> 19, (8, 15) --> 21, (8, 16) --> 5, (8, 17) --> 21, (8, 18) --> 9, (8, 19) --> 6,
                 (8, 20) --> 1, (8, 21) --> 10, (8, 22) --> 13, (8, 23) --> 0, (8, 24) --> 16, (8, 25) --> 16,
                 (9, 1) --> 16, (9, 2) --> 19, (9, 3) --> 2, (9, 4) --> 9, (9, 5) --> 13, (9, 6) --> 21, (9, 7) --> 17,
                 (9, 8) --> 19, (9, 9) --> 0, (9, 10) --> 8, (9, 11) --> 6, (9, 12) --> 10, (9, 13) --> 19,
                 (9, 14) --> 21, (9, 15) --> 6, (9, 16) --> 18, (9, 17) --> 17, (9, 18) --> 7, (9, 19) --> 4,
                 (9, 20) --> 3, (9, 21) --> 4, (9, 22) --> 0, (9, 23) --> 9, (9, 24) --> 6, (9, 25) --> 0,
                 (10, 1) --> 2, (10, 2) --> 18, (10, 3) --> 8, (10, 4) --> 0, (10, 5) --> 20, (10, 6) --> 19,
                 (10, 7) --> 20, (10, 8) --> 16, (10, 9) --> 8, (10, 10) --> 0, (10, 11) --> 11, (10, 12) --> 14,
                 (10, 13) --> 3, (10, 14) --> 15, (10, 15) --> 2, (10, 16) --> 19, (10, 17) --> 12, (10, 18) --> 6,
                 (10, 19) --> 12, (10, 20) --> 12, (10, 21) --> 20, (10, 22) --> 12, (10, 23) --> 16, (10, 24) --> 3,
                 (10, 25) --> 8, (11, 1) --> 2, (11, 2) --> 10, (11, 3) --> 1, (11, 4) --> 15, (11, 5) --> 18,
                 (11, 6) --> 5, (11, 7) --> 3, (11, 8) --> 14, (11, 9) --> 6, (11, 10) --> 11, (11, 11) --> 0,
                 (11, 12) --> 1, (11, 13) --> 9, (11, 14) --> 21, (11, 15) --> 14, (11, 16) --> 17, (11, 17) --> 15,
                 (11, 18) --> 17, (11, 19) --> 10, (11, 20) --> 18, (11, 21) --> 17, (11, 22) --> 16, (11, 23) --> 12,
                 (11, 24) --> 9, (11, 25) --> 1, (12, 1) --> 13, (12, 2) --> 12, (12, 3) --> 19, (12, 4) --> 2,
                 (12, 5) --> 7, (12, 6) --> 12, (12, 7) --> 18, (12, 8) --> 4, (12, 9) --> 10, (12, 10) --> 14,
                 (12, 11) --> 1, (12, 12) --> 0, (12, 13) --> 8, (12, 14) --> 14, (12, 15) --> 8, (12, 16) --> 5,
                 (12, 17) --> 9, (12, 18) --> 21, (12, 19) --> 9, (12, 20) --> 9, (12, 21) --> 8, (12, 22) --> 0,
                 (12, 23) --> 16, (12, 24) --> 18, (12, 25) --> 2, (13, 1) --> 18, (13, 2) --> 0, (13, 3) --> 19,
                 (13, 4) --> 9, (13, 5) --> 10, (13, 6) --> 8, (13, 7) --> 13, (13, 8) --> 1, (13, 9) --> 19,
                 (13, 10) --> 3, (13, 11) --> 9, (13, 12) --> 8, (13, 13) --> 0, (13, 14) --> 0, (13, 15) --> 9,
                 (13, 16) --> 5, (13, 17) --> 14, (13, 18) --> 17, (13, 19) --> 18, (13, 20) --> 10, (13, 21) --> 4,
                 (13, 22) --> 8, (13, 23) --> 7, (13, 24) --> 20, (13, 25) --> 2, (14, 1) --> 4, (14, 2) --> 2,
                 (14, 3) --> 11, (14, 4) --> 5, (14, 5) --> 2, (14, 6) --> 4, (14, 7) --> 16, (14, 8) --> 19,
                 (14, 9) --> 21, (14, 10) --> 15, (14, 11) --> 21, (14, 12) --> 14, (14, 13) --> 0, (14, 14) --> 0,
                 (14, 15) --> 17, (14, 16) --> 14, (14, 17) --> 11, (14, 18) --> 15, (14, 19) --> 4, (14, 20) --> 21,
                 (14, 21) --> 2, (14, 22) --> 20, (14, 23) --> 19, (14, 24) --> 1, (14, 25) --> 17, (15, 1) --> 18,
                 (15, 2) --> 20, (15, 3) --> 15, (15, 4) --> 0, (15, 5) --> 12, (15, 6) --> 7, (15, 7) --> 7,
                 (15, 8) --> 21, (15, 9) --> 6, (15, 10) --> 2, (15, 11) --> 14, (15, 12) --> 8, (15, 13) --> 9,
                 (15, 14) --> 17, (15, 15) --> 0, (15, 16) --> 5, (15, 17) --> 14, (15, 18) --> 5, (15, 19) --> 8,
                 (15, 20) --> 17, (15, 21) --> 19, (15, 22) --> 16, (15, 23) --> 15, (15, 24) --> 15, (15, 25) --> 18,
                 (16, 1) --> 16, (16, 2) --> 10, (16, 3) --> 8, (16, 4) --> 10, (16, 5) --> 13, (16, 6) --> 3,
                 (16, 7) --> 8, (16, 8) --> 5, (16, 9) --> 18, (16, 10) --> 19, (16, 11) --> 17, (16, 12) --> 5,
                 (16, 13) --> 5, (16, 14) --> 14, (16, 15) --> 5, (16, 16) --> 0, (16, 17) --> 16, (16, 18) --> 7,
                 (16, 19) --> 1, (16, 20) --> 3, (16, 21) --> 3, (16, 22) --> 11, (16, 23) --> 8, (16, 24) --> 12,
                 (16, 25) --> 21, (17, 1) --> 4, (17, 2) --> 14, (17, 3) --> 16, (17, 4) --> 1, (17, 5) --> 4,
                 (17, 6) --> 9, (17, 7) --> 15, (17, 8) --> 21, (17, 9) --> 17, (17, 10) --> 12, (17, 11) --> 15,
                 (17, 12) --> 9, (17, 13) --> 14, (17, 14) --> 11, (17, 15) --> 14, (17, 16) --> 16, (17, 17) --> 0,
                 (17, 18) --> 18, (17, 19) --> 2, (17, 20) --> 2, (17, 21) --> 14, (17, 22) --> 11, (17, 23) --> 12,
                 (17, 24) --> 13, (17, 25) --> 18, (18, 1) --> 0, (18, 2) --> 18, (18, 3) --> 4, (18, 4) --> 8,
                 (18, 5) --> 10, (18, 6) --> 10, (18, 7) --> 7, (18, 8) --> 9, (18, 9) --> 7, (18, 10) --> 6,
                 (18, 11) --> 17, (18, 12) --> 21, (18, 13) --> 17, (18, 14) --> 15, (18, 15) --> 5, (18, 16) --> 7,
                 (18, 17) --> 18, (18, 18) --> 0, (18, 19) --> 21, (18, 20) --> 3, (18, 21) --> 12, (18, 22) --> 20,
                 (18, 23) --> 10, (18, 24) --> 19, (18, 25) --> 15, (19, 1) --> 2, (19, 2) --> 21, (19, 3) --> 14,
                 (19, 4) --> 11, (19, 5) --> 14, (19, 6) --> 16, (19, 7) --> 7, (19, 8) --> 6, (19, 9) --> 4,
                 (19, 10) --> 12, (19, 11) --> 10, (19, 12) --> 9, (19, 13) --> 18, (19, 14) --> 4, (19, 15) --> 8,
                 (19, 16) --> 1, (19, 17) --> 2, (19, 18) --> 21, (19, 19) --> 0, (19, 20) --> 6, (19, 21) --> 16,
                 (19, 22) --> 10, (19, 23) --> 15, (19, 24) --> 12, (19, 25) --> 10, (20, 1) --> 5, (20, 2) --> 7,
                 (20, 3) --> 21, (20, 4) --> 16, (20, 5) --> 15, (20, 6) --> 2, (20, 7) --> 2, (20, 8) --> 1,
                 (20, 9) --> 3, (20, 10) --> 12, (20, 11) --> 18, (20, 12) --> 9, (20, 13) --> 10, (20, 14) --> 21,
                 (20, 15) --> 17, (20, 16) --> 3, (20, 17) --> 2, (20, 18) --> 3, (20, 19) --> 6, (20, 20) --> 0,
                 (20, 21) --> 13, (20, 22) --> 15, (20, 23) --> 8, (20, 24) --> 1, (20, 25) --> 15, (21, 1) --> 19,
                 (21, 2) --> 3, (21, 3) --> 15, (21, 4) --> 18, (21, 5) --> 12, (21, 6) --> 20, (21, 7) --> 20,
                 (21, 8) --> 10, (21, 9) --> 4, (21, 10) --> 20, (21, 11) --> 17, (21, 12) --> 8, (21, 13) --> 4,
                 (21, 14) --> 2, (21, 15) --> 19, (21, 16) --> 3, (21, 17) --> 14, (21, 18) --> 12, (21, 19) --> 16,
                 (21, 20) --> 13, (21, 21) --> 0, (21, 22) --> 16, (21, 23) --> 4, (21, 24) --> 19, (21, 25) --> 6,
                 (22, 1) --> 20, (22, 2) --> 13, (22, 3) --> 3, (22, 4) --> 3, (22, 5) --> 11, (22, 6) --> 8,
                 (22, 7) --> 21, (22, 8) --> 13, (22, 9) --> 0, (22, 10) --> 12, (22, 11) --> 16, (22, 12) --> 0,
                 (22, 13) --> 8, (22, 14) --> 20, (22, 15) --> 16, (22, 16) --> 11, (22, 17) --> 11, (22, 18) --> 20,
                 (22, 19) --> 10, (22, 20) --> 15, (22, 21) --> 16, (22, 22) --> 0, (22, 23) --> 15, (22, 24) --> 21,
                 (22, 25) --> 12, (23, 1) --> 2, (23, 2) --> 0, (23, 3) --> 13, (23, 4) --> 6, (23, 5) --> 3,
                 (23, 6) --> 20, (23, 7) --> 16, (23, 8) --> 0, (23, 9) --> 9, (23, 10) --> 16, (23, 11) --> 12,
                 (23, 12) --> 16, (23, 13) --> 7, (23, 14) --> 19, (23, 15) --> 15, (23, 16) --> 8, (23, 17) --> 12,
                 (23, 18) --> 10, (23, 19) --> 15, (23, 20) --> 8, (23, 21) --> 4, (23, 22) --> 15, (23, 23) --> 0,
                 (23, 24) --> 12, (23, 25) --> 18, (24, 1) --> 13, (24, 2) --> 14, (24, 3) --> 9, (24, 4) --> 3,
                 (24, 5) --> 7, (24, 6) --> 17, (24, 7) --> 4, (24, 8) --> 16, (24, 9) --> 6, (24, 10) --> 3,
                 (24, 11) --> 9, (24, 12) --> 18, (24, 13) --> 20, (24, 14) --> 1, (24, 15) --> 15, (24, 16) --> 12,
                 (24, 17) --> 13, (24, 18) --> 19, (24, 19) --> 12, (24, 20) --> 1, (24, 21) --> 19, (24, 22) --> 21,
                 (24, 23) --> 12, (24, 24) --> 0, (24, 25) --> 11, (25, 1) --> 16, (25, 2) --> 7, (25, 3) --> 19,
                 (25, 4) --> 18, (25, 5) --> 3, (25, 6) --> 15, (25, 7) --> 8, (25, 8) --> 16, (25, 9) --> 0,
                 (25, 10) --> 8, (25, 11) --> 1, (25, 12) --> 2, (25, 13) --> 2, (25, 14) --> 17, (25, 15) --> 18,
                 (25, 16) --> 21, (25, 17) --> 18, (25, 18) --> 15, (25, 19) --> 10, (25, 20) --> 15, (25, 21) --> 6,
                 (25, 22) --> 12, (25, 23) --> 18, (25, 24) --> 11, (25, 25) --> 0)
letting maxDist be 37
letting minDist be 266
letting nbCharacter be 25
letting numOfCodeWords be 9
